p cnf 1516
-24 -472
-25 -475
-26 -478
-27 -481
-28 -484
-29 -487
-30 -490
-31 -493
-32 -496
-33 -499
-34 -502
-35 -505
-36 -508
-37 -511
-38 -514
-39 -517
-40 -520
-41 -523
-42 -526
-43 -529
-44 -532
-45 -535
-46 -538
-47 539
-48 540
-49 541
-50 542
-51 543
-52 544
-53 545
-54 546
-55 547
-56 548
-57 -25
-57 -26
25 26 57
-58 -27
-58 -28
27 28 58
-59 -29
-59 -30
29 30 59
-60 -31
-60 -32
31 32 60
-61 -33
-61 -34
33 34 61
-62 -35
-62 -36
35 36 62
-63 -37
-63 -38
37 38 63
-64 -39
-64 -40
39 40 64
-65 -41
-65 -42
41 42 65
-66 -43
-66 -44
43 44 66
-67 -45
-67 -46
45 46 67
-68 -47
-68 -48
47 48 68
-69 -49
-69 -50
49 50 69
-70 -51
-70 -52
51 52 70
-71 -53
-71 -54
53 54 71
-72 -55
-72 -56
55 56 72
-73 57
-73 58
-57 -58 73
-74 59
-74 60
-59 -60 74
-75 61
-75 62
-61 -62 75
-76 63
-76 64
-63 -64 76
-77 65
-77 66
-65 -66 77
-78 67
-78 68
-67 -68 78
-79 69
-79 70
-69 -70 79
-80 71
-80 72
-71 -72 80
-81 73
-81 74
-73 -74 81
-82 75
-82 76
-75 -76 82
-83 77
-83 78
-77 -78 83
-84 79
-84 80
-79 -80 84
-85 81
-85 82
-81 -82 85
-86 83
-86 84
-83 -84 86
-87 85
-87 86
-85 -86 87
-88 -24
-88 25
24 -25 88
-89 24
-89 -25
-24 25 89
-90 -88
-90 -89
88 89 90
-91 24
-91 25
-24 -25 91
-92 -24
-92 -90
24 90 92
-93 24
-93 90
-24 -90 93
-94 -92
-94 -93
92 93 94
-95 24
-95 -90
-24 90 95
-96 -91
-96 -95
91 95 96
-97 -25
-97 26
25 -26 97
-98 25
-98 -26
-25 26 98
-99 -97
-99 -98
97 98 99
-100 25
-100 26
-25 -26 100
-101 96
-101 -99
-96 99 101
-102 -96
-102 99
96 -99 102
-103 -101
-103 -102
101 102 103
-104 -96
-104 -99
96 99 104
-105 -100
-105 -104
100 104 105
-106 -26
-106 27
26 -27 106
-107 26
-107 -27
-26 27 107
-108 -106
-108 -107
106 107 108
-109 26
-109 27
-26 -27 109
-110 105
-110 -108
-105 108 110
-111 -105
-111 108
105 -108 111
-112 -110
-112 -111
110 111 112
-113 -105
-113 -108
105 108 113
-114 -109
-114 -113
109 113 114
-115 -27
-115 28
27 -28 115
-116 27
-116 -28
-27 28 116
-117 -115
-117 -116
115 116 117
-118 27
-118 28
-27 -28 118
-119 114
-119 -117
-114 117 119
-120 -114
-120 117
114 -117 120
-121 -119
-121 -120
119 120 121
-122 -114
-122 -117
114 117 122
-123 -118
-123 -122
118 122 123
-124 -28
-124 29
28 -29 124
-125 28
-125 -29
-28 29 125
-126 -124
-126 -125
124 125 126
-127 28
-127 29
-28 -29 127
-128 123
-128 -126
-123 126 128
-129 -123
-129 126
123 -126 129
-130 -128
-130 -129
128 129 130
-131 -123
-131 -126
123 126 131
-132 -127
-132 -131
127 131 132
-133 -29
-133 30
29 -30 133
-134 29
-134 -30
-29 30 134
-135 -133
-135 -134
133 134 135
-136 29
-136 30
-29 -30 136
-137 132
-137 -135
-132 135 137
-138 -132
-138 135
132 -135 138
-139 -137
-139 -138
137 138 139
-140 -132
-140 -135
132 135 140
-141 -136
-141 -140
136 140 141
-142 -30
-142 31
30 -31 142
-143 30
-143 -31
-30 31 143
-144 -142
-144 -143
142 143 144
-145 30
-145 31
-30 -31 145
-146 141
-146 -144
-141 144 146
-147 -141
-147 144
141 -144 147
-148 -146
-148 -147
146 147 148
-149 -141
-149 -144
141 144 149
-150 -145
-150 -149
145 149 150
-151 -31
-151 32
31 -32 151
-152 31
-152 -32
-31 32 152
-153 -151
-153 -152
151 152 153
-154 31
-154 32
-31 -32 154
-155 150
-155 -153
-150 153 155
-156 -150
-156 153
150 -153 156
-157 -155
-157 -156
155 156 157
-158 -150
-158 -153
150 153 158
-159 -154
-159 -158
154 158 159
-160 -32
-160 33
32 -33 160
-161 32
-161 -33
-32 33 161
-162 -160
-162 -161
160 161 162
-163 32
-163 33
-32 -33 163
-164 159
-164 -162
-159 162 164
-165 -159
-165 162
159 -162 165
-166 -164
-166 -165
164 165 166
-167 -159
-167 -162
159 162 167
-168 -163
-168 -167
163 167 168
-169 -33
-169 34
33 -34 169
-170 33
-170 -34
-33 34 170
-171 -169
-171 -170
169 170 171
-172 33
-172 34
-33 -34 172
-173 168
-173 -171
-168 171 173
-174 -168
-174 171
168 -171 174
-175 -173
-175 -174
173 174 175
-176 -168
-176 -171
168 171 176
-177 -172
-177 -176
172 176 177
-178 -34
-178 35
34 -35 178
-179 34
-179 -35
-34 35 179
-180 -178
-180 -179
178 179 180
-181 34
-181 35
-34 -35 181
-182 177
-182 -180
-177 180 182
-183 -177
-183 180
177 -180 183
-184 -182
-184 -183
182 183 184
-185 -177
-185 -180
177 180 185
-186 -181
-186 -185
181 185 186
-187 -35
-187 36
35 -36 187
-188 35
-188 -36
-35 36 188
-189 -187
-189 -188
187 188 189
-190 35
-190 36
-35 -36 190
-191 186
-191 -189
-186 189 191
-192 -186
-192 189
186 -189 192
-193 -191
-193 -192
191 192 193
-194 -186
-194 -189
186 189 194
-195 -190
-195 -194
190 194 195
-196 -36
-196 37
36 -37 196
-197 36
-197 -37
-36 37 197
-198 -196
-198 -197
196 197 198
-199 36
-199 37
-36 -37 199
-200 195
-200 -198
-195 198 200
-201 -195
-201 198
195 -198 201
-202 -200
-202 -201
200 201 202
-203 -195
-203 -198
195 198 203
-204 -199
-204 -203
199 203 204
-205 -37
-205 38
37 -38 205
-206 37
-206 -38
-37 38 206
-207 -205
-207 -206
205 206 207
-208 37
-208 38
-37 -38 208
-209 204
-209 -207
-204 207 209
-210 -204
-210 207
204 -207 210
-211 -209
-211 -210
209 210 211
-212 -204
-212 -207
204 207 212
-213 -208
-213 -212
208 212 213
-214 -38
-214 39
38 -39 214
-215 38
-215 -39
-38 39 215
-216 -214
-216 -215
214 215 216
-217 38
-217 39
-38 -39 217
-218 213
-218 -216
-213 216 218
-219 -213
-219 216
213 -216 219
-220 -218
-220 -219
218 219 220
-221 -213
-221 -216
213 216 221
-222 -217
-222 -221
217 221 222
-223 -39
-223 40
39 -40 223
-224 39
-224 -40
-39 40 224
-225 -223
-225 -224
223 224 225
-226 39
-226 40
-39 -40 226
-227 222
-227 -225
-222 225 227
-228 -222
-228 225
222 -225 228
-229 -227
-229 -228
227 228 229
-230 -222
-230 -225
222 225 230
-231 -226
-231 -230
226 230 231
-232 -40
-232 41
40 -41 232
-233 40
-233 -41
-40 41 233
-234 -232
-234 -233
232 233 234
-235 40
-235 41
-40 -41 235
-236 231
-236 -234
-231 234 236
-237 -231
-237 234
231 -234 237
-238 -236
-238 -237
236 237 238
-239 -231
-239 -234
231 234 239
-240 -235
-240 -239
235 239 240
-241 -41
-241 42
41 -42 241
-242 41
-242 -42
-41 42 242
-243 -241
-243 -242
241 242 243
-244 41
-244 42
-41 -42 244
-245 240
-245 -243
-240 243 245
-246 -240
-246 243
240 -243 246
-247 -245
-247 -246
245 246 247
-248 -240
-248 -243
240 243 248
-249 -244
-249 -248
244 248 249
-250 -42
-250 43
42 -43 250
-251 42
-251 -43
-42 43 251
-252 -250
-252 -251
250 251 252
-253 42
-253 43
-42 -43 253
-254 249
-254 -252
-249 252 254
-255 -249
-255 252
249 -252 255
-256 -254
-256 -255
254 255 256
-257 -249
-257 -252
249 252 257
-258 -253
-258 -257
253 257 258
-259 -43
-259 44
43 -44 259
-260 43
-260 -44
-43 44 260
-261 -259
-261 -260
259 260 261
-262 43
-262 44
-43 -44 262
-263 258
-263 -261
-258 261 263
-264 -258
-264 261
258 -261 264
-265 -263
-265 -264
263 264 265
-266 -258
-266 -261
258 261 266
-267 -262
-267 -266
262 266 267
-268 -44
-268 45
44 -45 268
-269 44
-269 -45
-44 45 269
-270 -268
-270 -269
268 269 270
-271 44
-271 45
-44 -45 271
-272 267
-272 -270
-267 270 272
-273 -267
-273 270
267 -270 273
-274 -272
-274 -273
272 273 274
-275 -267
-275 -270
267 270 275
-276 -271
-276 -275
271 275 276
-277 -45
-277 46
45 -46 277
-278 45
-278 -46
-45 46 278
-279 -277
-279 -278
277 278 279
-280 45
-280 46
-45 -46 280
-281 276
-281 -279
-276 279 281
-282 -276
-282 279
276 -279 282
-283 -281
-283 -282
281 282 283
-284 -276
-284 -279
276 279 284
-285 -280
-285 -284
280 284 285
-286 -46
-286 47
46 -47 286
-287 46
-287 -47
-46 47 287
-288 -286
-288 -287
286 287 288
-289 46
-289 47
-46 -47 289
-290 285
-290 -288
-285 288 290
-291 -285
-291 288
285 -288 291
-292 -290
-292 -291
290 291 292
-293 -285
-293 -288
285 288 293
-294 -289
-294 -293
289 293 294
-295 -47
-295 48
47 -48 295
-296 47
-296 -48
-47 48 296
-297 -295
-297 -296
295 296 297
-298 47
-298 48
-47 -48 298
-299 294
-299 -297
-294 297 299
-300 -294
-300 297
294 -297 300
-301 -299
-301 -300
299 300 301
-302 -294
-302 -297
294 297 302
-303 -298
-303 -302
298 302 303
-304 -48
-304 49
48 -49 304
-305 48
-305 -49
-48 49 305
-306 -304
-306 -305
304 305 306
-307 48
-307 49
-48 -49 307
-308 303
-308 -306
-303 306 308
-309 -303
-309 306
303 -306 309
-310 -308
-310 -309
308 309 310
-311 -303
-311 -306
303 306 311
-312 -307
-312 -311
307 311 312
-313 -49
-313 50
49 -50 313
-314 49
-314 -50
-49 50 314
-315 -313
-315 -314
313 314 315
-316 49
-316 50
-49 -50 316
-317 312
-317 -315
-312 315 317
-318 -312
-318 315
312 -315 318
-319 -317
-319 -318
317 318 319
-320 -312
-320 -315
312 315 320
-321 -316
-321 -320
316 320 321
-322 -50
-322 51
50 -51 322
-323 50
-323 -51
-50 51 323
-324 -322
-324 -323
322 323 324
-325 50
-325 51
-50 -51 325
-326 321
-326 -324
-321 324 326
-327 -321
-327 324
321 -324 327
-328 -326
-328 -327
326 327 328
-329 -321
-329 -324
321 324 329
-330 -325
-330 -329
325 329 330
-331 -51
-331 52
51 -52 331
-332 51
-332 -52
-51 52 332
-333 -331
-333 -332
331 332 333
-334 51
-334 52
-51 -52 334
-335 330
-335 -333
-330 333 335
-336 -330
-336 333
330 -333 336
-337 -335
-337 -336
335 336 337
-338 -330
-338 -333
330 333 338
-339 -334
-339 -338
334 338 339
-340 -52
-340 53
52 -53 340
-341 52
-341 -53
-52 53 341
-342 -340
-342 -341
340 341 342
-343 52
-343 53
-52 -53 343
-344 339
-344 -342
-339 342 344
-345 -339
-345 342
339 -342 345
-346 -344
-346 -345
344 345 346
-347 -339
-347 -342
339 342 347
-348 -343
-348 -347
343 347 348
-349 -53
-349 54
53 -54 349
-350 53
-350 -54
-53 54 350
-351 -349
-351 -350
349 350 351
-352 53
-352 54
-53 -54 352
-353 348
-353 -351
-348 351 353
-354 -348
-354 351
348 -351 354
-355 -353
-355 -354
353 354 355
-356 -348
-356 -351
348 351 356
-357 -352
-357 -356
352 356 357
-358 -54
-358 55
54 -55 358
-359 54
-359 -55
-54 55 359
-360 -358
-360 -359
358 359 360
-361 54
-361 55
-54 -55 361
-362 357
-362 -360
-357 360 362
-363 -357
-363 360
357 -360 363
-364 -362
-364 -363
362 363 364
-365 -357
-365 -360
357 360 365
-366 -361
-366 -365
361 365 366
-367 -55
-367 56
55 -56 367
-368 55
-368 -56
-55 56 368
-369 -367
-369 -368
367 368 369
-370 55
-370 56
-55 -56 370
-371 366
-371 -369
-366 369 371
-372 -366
-372 369
366 -369 372
-373 -371
-373 -372
371 372 373
-374 -366
-374 -369
366 369 374
-375 -370
-375 -374
370 374 375
-376 24
-376 -94
-24 94 376
-377 -24
-377 26
24 -26 377
-378 -376
-378 -377
376 377 378
-379 24
-379 -103
-24 103 379
-380 -24
-380 27
24 -27 380
-381 -379
-381 -380
379 380 381
-382 24
-382 -112
-24 112 382
-383 -24
-383 28
24 -28 383
-384 -382
-384 -383
382 383 384
-385 24
-385 -121
-24 121 385
-386 -24
-386 29
24 -29 386
-387 -385
-387 -386
385 386 387
-388 24
-388 -130
-24 130 388
-389 -24
-389 30
24 -30 389
-390 -388
-390 -389
388 389 390
-391 24
-391 -139
-24 139 391
-392 -24
-392 31
24 -31 392
-393 -391
-393 -392
391 392 393
-394 24
-394 -148
-24 148 394
-395 -24
-395 32
24 -32 395
-396 -394
-396 -395
394 395 396
-397 24
-397 -157
-24 157 397
-398 -24
-398 33
24 -33 398
-399 -397
-399 -398
397 398 399
-400 24
-400 -166
-24 166 400
-401 -24
-401 34
24 -34 401
-402 -400
-402 -401
400 401 402
-403 24
-403 -175
-24 175 403
-404 -24
-404 35
24 -35 404
-405 -403
-405 -404
403 404 405
-406 24
-406 -184
-24 184 406
-407 -24
-407 36
24 -36 407
-408 -406
-408 -407
406 407 408
-409 24
-409 -193
-24 193 409
-410 -24
-410 37
24 -37 410
-411 -409
-411 -410
409 410 411
-412 24
-412 -202
-24 202 412
-413 -24
-413 38
24 -38 413
-414 -412
-414 -413
412 413 414
-415 24
-415 -211
-24 211 415
-416 -24
-416 39
24 -39 416
-417 -415
-417 -416
415 416 417
-418 24
-418 -220
-24 220 418
-419 -24
-419 40
24 -40 419
-420 -418
-420 -419
418 419 420
-421 24
-421 -229
-24 229 421
-422 -24
-422 41
24 -41 422
-423 -421
-423 -422
421 422 423
-424 24
-424 -238
-24 238 424
-425 -24
-425 42
24 -42 425
-426 -424
-426 -425
424 425 426
-427 24
-427 -247
-24 247 427
-428 -24
-428 43
24 -43 428
-429 -427
-429 -428
427 428 429
-430 24
-430 -256
-24 256 430
-431 -24
-431 44
24 -44 431
-432 -430
-432 -431
430 431 432
-433 24
-433 -265
-24 265 433
-434 -24
-434 45
24 -45 434
-435 -433
-435 -434
433 434 435
-436 24
-436 -274
-24 274 436
-437 -24
-437 46
24 -46 437
-438 -436
-438 -437
436 437 438
-439 24
-439 -283
-24 283 439
-440 -24
-440 47
24 -47 440
-441 -439
-441 -440
439 440 441
-442 24
-442 -292
-24 292 442
-443 -24
-443 48
24 -48 443
-444 -442
-444 -443
442 443 444
-445 24
-445 -301
-24 301 445
-446 -24
-446 49
24 -49 446
-447 -445
-447 -446
445 446 447
-448 24
-448 -310
-24 310 448
-449 -24
-449 50
24 -50 449
-450 -448
-450 -449
448 449 450
-451 24
-451 -319
-24 319 451
-452 -24
-452 51
24 -51 452
-453 -451
-453 -452
451 452 453
-454 24
-454 -328
-24 328 454
-455 -24
-455 52
24 -52 455
-456 -454
-456 -455
454 455 456
-457 24
-457 -337
-24 337 457
-458 -24
-458 53
24 -53 458
-459 -457
-459 -458
457 458 459
-460 24
-460 -346
-24 346 460
-461 -24
-461 54
24 -54 461
-462 -460
-462 -461
460 461 462
-463 24
-463 -355
-24 355 463
-464 -24
-464 55
24 -55 464
-465 -463
-465 -464
463 464 465
-466 24
-466 -364
-24 364 466
-467 -24
-467 56
24 -56 467
-468 -466
-468 -467
466 467 468
-469 24
-469 -373
-24 373 469
-470 1
-470 87
-1 -87 470
-471 -87
-471 88
87 -88 471
-472 -470
-472 -471
470 471 472
-473 2
-473 87
-2 -87 473
-474 -87
-474 -378
87 378 474
-475 -473
-475 -474
473 474 475
-476 3
-476 87
-3 -87 476
-477 -87
-477 -381
87 381 477
-478 -476
-478 -477
476 477 478
-479 4
-479 87
-4 -87 479
-480 -87
-480 -384
87 384 480
-481 -479
-481 -480
479 480 481
-482 5
-482 87
-5 -87 482
-483 -87
-483 -387
87 387 483
-484 -482
-484 -483
482 483 484
-485 6
-485 87
-6 -87 485
-486 -87
-486 -390
87 390 486
-487 -485
-487 -486
485 486 487
-488 7
-488 87
-7 -87 488
-489 -87
-489 -393
87 393 489
-490 -488
-490 -489
488 489 490
-491 8
-491 87
-8 -87 491
-492 -87
-492 -396
87 396 492
-493 -491
-493 -492
491 492 493
-494 9
-494 87
-9 -87 494
-495 -87
-495 -399
87 399 495
-496 -494
-496 -495
494 495 496
-497 10
-497 87
-10 -87 497
-498 -87
-498 -402
87 402 498
-499 -497
-499 -498
497 498 499
-500 11
-500 87
-11 -87 500
-501 -87
-501 -405
87 405 501
-502 -500
-502 -501
500 501 502
-503 12
-503 87
-12 -87 503
-504 -87
-504 -408
87 408 504
-505 -503
-505 -504
503 504 505
-506 13
-506 87
-13 -87 506
-507 -87
-507 -411
87 411 507
-508 -506
-508 -507
506 507 508
-509 14
-509 87
-14 -87 509
-510 -87
-510 -414
87 414 510
-511 -509
-511 -510
509 510 511
-512 15
-512 87
-15 -87 512
-513 -87
-513 -417
87 417 513
-514 -512
-514 -513
512 513 514
-515 16
-515 87
-16 -87 515
-516 -87
-516 -420
87 420 516
-517 -515
-517 -516
515 516 517
-518 17
-518 87
-17 -87 518
-519 -87
-519 -423
87 423 519
-520 -518
-520 -519
518 519 520
-521 18
-521 87
-18 -87 521
-522 -87
-522 -426
87 426 522
-523 -521
-523 -522
521 522 523
-524 19
-524 87
-19 -87 524
-525 -87
-525 -429
87 429 525
-526 -524
-526 -525
524 525 526
-527 20
-527 87
-20 -87 527
-528 -87
-528 -432
87 432 528
-529 -527
-529 -528
527 528 529
-530 21
-530 87
-21 -87 530
-531 -87
-531 -435
87 435 531
-532 -530
-532 -531
530 531 532
-533 22
-533 87
-22 -87 533
-534 -87
-534 -438
87 438 534
-535 -533
-535 -534
533 534 535
-536 23
-536 87
-23 -87 536
-537 -87
-537 -441
87 441 537
-538 -536
-538 -537
536 537 538
-539 -87
-539 -444
87 444 539
-540 -87
-540 -447
87 447 540
-541 -87
-541 -450
87 450 541
-542 -87
-542 -453
87 453 542
-543 -87
-543 -456
87 456 543
-544 -87
-544 -459
87 459 544
-545 -87
-545 -462
87 462 545
-546 -87
-546 -465
87 465 546
-547 -87
-547 -468
87 468 547
-548 -87
-548 469
87 -469 548
-549 -56
-549 375
56 -375 549
-550 24
-550 -549
-24 549 550
550
